NIA/baseFiles/base/simpleloop
y + x - y00 - x00